NAME: ali535
TYPE: TSP
COMMENT: 535 Airports around the globe (Padberg/Rinaldi)
DIMENSION: 535
EDGE_WEIGHT_TYPE: GEO
DISPLAY_DATA_TYPE: COORD_DISPLAY
NODE_COORD_SECTION
1  2 3
2  3 6
3  5 4
4  5 9
5  6 8
6  8 10
7  9 8
8  10 2
9  10 8
10 11 9
11 0 0
12 12 12
EOF
